FilesMath464/S23/Software/AMPL/Inventory.dat.txt
param n := 12;
param Cost1 := 3;
param Cost2 := 5;

param Demand := 
     1    23
     2     9
     3     6
     4    20
     5    16
     6    11
     7    13
     8     6
     9    23
    10    23
    11    11
    12    17 ;
